(set-logic QF_LRA)
(declare-fun T1 () Real )
(declare-fun T2 () Real )
(declare-fun T3 () Real )
(declare-fun T4 () Real )
(declare-fun T5 () Real )
(declare-fun T6 () Real )
(declare-fun T7 () Real )
(declare-fun T8 () Real )
(declare-fun Z () Real )
(declare-fun k () Real )
(assert (let
(( $goal (>= Z k) ))
(let
((
$phi ( and 
(or ( <= ( + T1 9 ) T2 ) ( <= ( + T2 39 ) T1 ) )
(or ( <= ( + T1 41 )  ( + T2 39 ) ) ( <= ( + T2 83 )( + T1 9 ) ) )
(or ( <= ( + T1 107 )  ( + T2 83 ) ) ( <= ( + T2 127 )( + T1 41 ) ) )
(or ( <= ( + T1 183 )  ( + T2 127 ) ) ( <= ( + T2 139 )( + T1 107 ) ) )
(or ( <= ( + T1 205 )  ( + T2 139 ) ) ( <= ( + T2 238 )( + T1 183 ) ) )
(or ( <= ( + T1 229 )  ( + T2 238 ) ) ( <= ( + T2 305 )( + T1 205 ) ) )
(or ( <= ( + T1 313 )  ( + T2 305 ) ) ( <= ( + T2 319 )( + T1 229 ) ) )
(or ( <= ( + T1 381 )  ( + T2 319 ) ) ( <= ( + T2 324 )( + T1 313 ) ) )
(or ( <= ( + T1 422 )  ( + T2 324 ) ) ( <= ( + T2 397 )( + T1 381 ) ) )
(or ( <= ( + T1 522 )  ( + T2 397 ) ) ( <= ( + T2 489 )( + T1 422 ) ) )
(or ( <= ( + T1 9 ) T3 ) ( <= ( + T3 20 ) T1 ) )
(or ( <= ( + T1 41 )  ( + T3 20 ) ) ( <= ( + T3 26 )( + T1 9 ) ) )
(or ( <= ( + T1 107 )  ( + T3 26 ) ) ( <= ( + T3 119 )( + T1 41 ) ) )
(or ( <= ( + T1 183 )  ( + T3 119 ) ) ( <= ( + T3 161 )( + T1 107 ) ) )
(or ( <= ( + T1 205 )  ( + T3 161 ) ) ( <= ( + T3 171 )( + T1 183 ) ) )
(or ( <= ( + T1 229 )  ( + T3 171 ) ) ( <= ( + T3 251 )( + T1 205 ) ) )
(or ( <= ( + T1 313 )  ( + T3 251 ) ) ( <= ( + T3 275 )( + T1 229 ) ) )
(or ( <= ( + T1 381 )  ( + T3 275 ) ) ( <= ( + T3 281 )( + T1 313 ) ) )
(or ( <= ( + T1 422 )  ( + T3 281 ) ) ( <= ( + T3 318 )( + T1 381 ) ) )
(or ( <= ( + T1 522 )  ( + T3 318 ) ) ( <= ( + T3 408 )( + T1 422 ) ) )
(or ( <= ( + T1 9 ) T4 ) ( <= ( + T4 59 ) T1 ) )
(or ( <= ( + T1 41 )  ( + T4 59 ) ) ( <= ( + T4 157 )( + T1 9 ) ) )
(or ( <= ( + T1 107 )  ( + T4 157 ) ) ( <= ( + T4 230 )( + T1 41 ) ) )
(or ( <= ( + T1 183 )  ( + T4 230 ) ) ( <= ( + T4 306 )( + T1 107 ) ) )
(or ( <= ( + T1 205 )  ( + T4 306 ) ) ( <= ( + T4 379 )( + T1 183 ) ) )
(or ( <= ( + T1 229 )  ( + T4 379 ) ) ( <= ( + T4 473 )( + T1 205 ) ) )
(or ( <= ( + T1 313 )  ( + T4 473 ) ) ( <= ( + T4 525 )( + T1 229 ) ) )
(or ( <= ( + T1 381 )  ( + T4 525 ) ) ( <= ( + T4 581 )( + T1 313 ) ) )
(or ( <= ( + T1 422 )  ( + T4 581 ) ) ( <= ( + T4 642 )( + T1 381 ) ) )
(or ( <= ( + T1 522 )  ( + T4 642 ) ) ( <= ( + T4 734 )( + T1 422 ) ) )
(or ( <= ( + T1 9 ) T5 ) ( <= ( + T5 55 ) T1 ) )
(or ( <= ( + T1 41 )  ( + T5 55 ) ) ( <= ( + T5 155 )( + T1 9 ) ) )
(or ( <= ( + T1 107 )  ( + T5 155 ) ) ( <= ( + T5 243 )( + T1 41 ) ) )
(or ( <= ( + T1 183 )  ( + T5 243 ) ) ( <= ( + T5 341 )( + T1 107 ) ) )
(or ( <= ( + T1 205 )  ( + T5 341 ) ) ( <= ( + T5 404 )( + T1 183 ) ) )
(or ( <= ( + T1 229 )  ( + T5 404 ) ) ( <= ( + T5 490 )( + T1 205 ) ) )
(or ( <= ( + T1 313 )  ( + T5 490 ) ) ( <= ( + T5 506 )( + T1 229 ) ) )
(or ( <= ( + T1 381 )  ( + T5 506 ) ) ( <= ( + T5 535 )( + T1 313 ) ) )
(or ( <= ( + T1 422 )  ( + T5 535 ) ) ( <= ( + T5 577 )( + T1 381 ) ) )
(or ( <= ( + T1 522 )  ( + T5 577 ) ) ( <= ( + T5 618 )( + T1 422 ) ) )
(or ( <= ( + T1 9 ) T6 ) ( <= ( + T6 20 ) T1 ) )
(or ( <= ( + T1 41 )  ( + T6 20 ) ) ( <= ( + T6 33 )( + T1 9 ) ) )
(or ( <= ( + T1 107 )  ( + T6 33 ) ) ( <= ( + T6 79 )( + T1 41 ) ) )
(or ( <= ( + T1 183 )  ( + T6 79 ) ) ( <= ( + T6 91 )( + T1 107 ) ) )
(or ( <= ( + T1 205 )  ( + T6 91 ) ) ( <= ( + T6 146 )( + T1 183 ) ) )
(or ( <= ( + T1 229 )  ( + T6 146 ) ) ( <= ( + T6 154 )( + T1 205 ) ) )
(or ( <= ( + T1 313 )  ( + T6 154 ) ) ( <= ( + T6 197 )( + T1 229 ) ) )
(or ( <= ( + T1 381 )  ( + T6 197 ) ) ( <= ( + T6 275 )( + T1 313 ) ) )
(or ( <= ( + T1 422 )  ( + T6 275 ) ) ( <= ( + T6 340 )( + T1 381 ) ) )
(or ( <= ( + T1 522 )  ( + T6 340 ) ) ( <= ( + T6 420 )( + T1 422 ) ) )
(or ( <= ( + T1 9 ) T7 ) ( <= ( + T7 19 ) T1 ) )
(or ( <= ( + T1 41 )  ( + T7 19 ) ) ( <= ( + T7 42 )( + T1 9 ) ) )
(or ( <= ( + T1 107 )  ( + T7 42 ) ) ( <= ( + T7 71 )( + T1 41 ) ) )
(or ( <= ( + T1 183 )  ( + T7 71 ) ) ( <= ( + T7 162 )( + T1 107 ) ) )
(or ( <= ( + T1 205 )  ( + T7 162 ) ) ( <= ( + T7 213 )( + T1 183 ) ) )
(or ( <= ( + T1 229 )  ( + T7 213 ) ) ( <= ( + T7 214 )( + T1 205 ) ) )
(or ( <= ( + T1 313 )  ( + T7 214 ) ) ( <= ( + T7 250 )( + T1 229 ) ) )
(or ( <= ( + T1 381 )  ( + T7 250 ) ) ( <= ( + T7 252 )( + T1 313 ) ) )
(or ( <= ( + T1 422 )  ( + T7 252 ) ) ( <= ( + T7 260 )( + T1 381 ) ) )
(or ( <= ( + T1 522 )  ( + T7 260 ) ) ( <= ( + T7 357 )( + T1 422 ) ) )
(or ( <= ( + T1 9 ) T8 ) ( <= ( + T8 45 ) T1 ) )
(or ( <= ( + T1 41 )  ( + T8 45 ) ) ( <= ( + T8 59 )( + T1 9 ) ) )
(or ( <= ( + T1 107 )  ( + T8 59 ) ) ( <= ( + T8 107 )( + T1 41 ) ) )
(or ( <= ( + T1 183 )  ( + T8 107 ) ) ( <= ( + T8 139 )( + T1 107 ) ) )
(or ( <= ( + T1 205 )  ( + T8 139 ) ) ( <= ( + T8 202 )( + T1 183 ) ) )
(or ( <= ( + T1 229 )  ( + T8 202 ) ) ( <= ( + T8 212 )( + T1 205 ) ) )
(or ( <= ( + T1 313 )  ( + T8 212 ) ) ( <= ( + T8 282 )( + T1 229 ) ) )
(or ( <= ( + T1 381 )  ( + T8 282 ) ) ( <= ( + T8 312 )( + T1 313 ) ) )
(or ( <= ( + T1 422 )  ( + T8 312 ) ) ( <= ( + T8 350 )( + T1 381 ) ) )
(or ( <= ( + T1 522 )  ( + T8 350 ) ) ( <= ( + T8 413 )( + T1 422 ) ) )
(or ( <= ( + T2 39 ) T3 ) ( <= ( + T3 20 ) T2 ) )
(or ( <= ( + T2 83 )  ( + T3 20 ) ) ( <= ( + T3 26 )( + T2 39 ) ) )
(or ( <= ( + T2 127 )  ( + T3 26 ) ) ( <= ( + T3 119 )( + T2 83 ) ) )
(or ( <= ( + T2 139 )  ( + T3 119 ) ) ( <= ( + T3 161 )( + T2 127 ) ) )
(or ( <= ( + T2 238 )  ( + T3 161 ) ) ( <= ( + T3 171 )( + T2 139 ) ) )
(or ( <= ( + T2 305 )  ( + T3 171 ) ) ( <= ( + T3 251 )( + T2 238 ) ) )
(or ( <= ( + T2 319 )  ( + T3 251 ) ) ( <= ( + T3 275 )( + T2 305 ) ) )
(or ( <= ( + T2 324 )  ( + T3 275 ) ) ( <= ( + T3 281 )( + T2 319 ) ) )
(or ( <= ( + T2 397 )  ( + T3 281 ) ) ( <= ( + T3 318 )( + T2 324 ) ) )
(or ( <= ( + T2 489 )  ( + T3 318 ) ) ( <= ( + T3 408 )( + T2 397 ) ) )
(or ( <= ( + T2 39 ) T4 ) ( <= ( + T4 59 ) T2 ) )
(or ( <= ( + T2 83 )  ( + T4 59 ) ) ( <= ( + T4 157 )( + T2 39 ) ) )
(or ( <= ( + T2 127 )  ( + T4 157 ) ) ( <= ( + T4 230 )( + T2 83 ) ) )
(or ( <= ( + T2 139 )  ( + T4 230 ) ) ( <= ( + T4 306 )( + T2 127 ) ) )
(or ( <= ( + T2 238 )  ( + T4 306 ) ) ( <= ( + T4 379 )( + T2 139 ) ) )
(or ( <= ( + T2 305 )  ( + T4 379 ) ) ( <= ( + T4 473 )( + T2 238 ) ) )
(or ( <= ( + T2 319 )  ( + T4 473 ) ) ( <= ( + T4 525 )( + T2 305 ) ) )
(or ( <= ( + T2 324 )  ( + T4 525 ) ) ( <= ( + T4 581 )( + T2 319 ) ) )
(or ( <= ( + T2 397 )  ( + T4 581 ) ) ( <= ( + T4 642 )( + T2 324 ) ) )
(or ( <= ( + T2 489 )  ( + T4 642 ) ) ( <= ( + T4 734 )( + T2 397 ) ) )
(or ( <= ( + T2 39 ) T5 ) ( <= ( + T5 55 ) T2 ) )
(or ( <= ( + T2 83 )  ( + T5 55 ) ) ( <= ( + T5 155 )( + T2 39 ) ) )
(or ( <= ( + T2 127 )  ( + T5 155 ) ) ( <= ( + T5 243 )( + T2 83 ) ) )
(or ( <= ( + T2 139 )  ( + T5 243 ) ) ( <= ( + T5 341 )( + T2 127 ) ) )
(or ( <= ( + T2 238 )  ( + T5 341 ) ) ( <= ( + T5 404 )( + T2 139 ) ) )
(or ( <= ( + T2 305 )  ( + T5 404 ) ) ( <= ( + T5 490 )( + T2 238 ) ) )
(or ( <= ( + T2 319 )  ( + T5 490 ) ) ( <= ( + T5 506 )( + T2 305 ) ) )
(or ( <= ( + T2 324 )  ( + T5 506 ) ) ( <= ( + T5 535 )( + T2 319 ) ) )
(or ( <= ( + T2 397 )  ( + T5 535 ) ) ( <= ( + T5 577 )( + T2 324 ) ) )
(or ( <= ( + T2 489 )  ( + T5 577 ) ) ( <= ( + T5 618 )( + T2 397 ) ) )
(or ( <= ( + T2 39 ) T6 ) ( <= ( + T6 20 ) T2 ) )
(or ( <= ( + T2 83 )  ( + T6 20 ) ) ( <= ( + T6 33 )( + T2 39 ) ) )
(or ( <= ( + T2 127 )  ( + T6 33 ) ) ( <= ( + T6 79 )( + T2 83 ) ) )
(or ( <= ( + T2 139 )  ( + T6 79 ) ) ( <= ( + T6 91 )( + T2 127 ) ) )
(or ( <= ( + T2 238 )  ( + T6 91 ) ) ( <= ( + T6 146 )( + T2 139 ) ) )
(or ( <= ( + T2 305 )  ( + T6 146 ) ) ( <= ( + T6 154 )( + T2 238 ) ) )
(or ( <= ( + T2 319 )  ( + T6 154 ) ) ( <= ( + T6 197 )( + T2 305 ) ) )
(or ( <= ( + T2 324 )  ( + T6 197 ) ) ( <= ( + T6 275 )( + T2 319 ) ) )
(or ( <= ( + T2 397 )  ( + T6 275 ) ) ( <= ( + T6 340 )( + T2 324 ) ) )
(or ( <= ( + T2 489 )  ( + T6 340 ) ) ( <= ( + T6 420 )( + T2 397 ) ) )
(or ( <= ( + T2 39 ) T7 ) ( <= ( + T7 19 ) T2 ) )
(or ( <= ( + T2 83 )  ( + T7 19 ) ) ( <= ( + T7 42 )( + T2 39 ) ) )
(or ( <= ( + T2 127 )  ( + T7 42 ) ) ( <= ( + T7 71 )( + T2 83 ) ) )
(or ( <= ( + T2 139 )  ( + T7 71 ) ) ( <= ( + T7 162 )( + T2 127 ) ) )
(or ( <= ( + T2 238 )  ( + T7 162 ) ) ( <= ( + T7 213 )( + T2 139 ) ) )
(or ( <= ( + T2 305 )  ( + T7 213 ) ) ( <= ( + T7 214 )( + T2 238 ) ) )
(or ( <= ( + T2 319 )  ( + T7 214 ) ) ( <= ( + T7 250 )( + T2 305 ) ) )
(or ( <= ( + T2 324 )  ( + T7 250 ) ) ( <= ( + T7 252 )( + T2 319 ) ) )
(or ( <= ( + T2 397 )  ( + T7 252 ) ) ( <= ( + T7 260 )( + T2 324 ) ) )
(or ( <= ( + T2 489 )  ( + T7 260 ) ) ( <= ( + T7 357 )( + T2 397 ) ) )
(or ( <= ( + T2 39 ) T8 ) ( <= ( + T8 45 ) T2 ) )
(or ( <= ( + T2 83 )  ( + T8 45 ) ) ( <= ( + T8 59 )( + T2 39 ) ) )
(or ( <= ( + T2 127 )  ( + T8 59 ) ) ( <= ( + T8 107 )( + T2 83 ) ) )
(or ( <= ( + T2 139 )  ( + T8 107 ) ) ( <= ( + T8 139 )( + T2 127 ) ) )
(or ( <= ( + T2 238 )  ( + T8 139 ) ) ( <= ( + T8 202 )( + T2 139 ) ) )
(or ( <= ( + T2 305 )  ( + T8 202 ) ) ( <= ( + T8 212 )( + T2 238 ) ) )
(or ( <= ( + T2 319 )  ( + T8 212 ) ) ( <= ( + T8 282 )( + T2 305 ) ) )
(or ( <= ( + T2 324 )  ( + T8 282 ) ) ( <= ( + T8 312 )( + T2 319 ) ) )
(or ( <= ( + T2 397 )  ( + T8 312 ) ) ( <= ( + T8 350 )( + T2 324 ) ) )
(or ( <= ( + T2 489 )  ( + T8 350 ) ) ( <= ( + T8 413 )( + T2 397 ) ) )
(or ( <= ( + T3 20 ) T4 ) ( <= ( + T4 59 ) T3 ) )
(or ( <= ( + T3 26 )  ( + T4 59 ) ) ( <= ( + T4 157 )( + T3 20 ) ) )
(or ( <= ( + T3 119 )  ( + T4 157 ) ) ( <= ( + T4 230 )( + T3 26 ) ) )
(or ( <= ( + T3 161 )  ( + T4 230 ) ) ( <= ( + T4 306 )( + T3 119 ) ) )
(or ( <= ( + T3 171 )  ( + T4 306 ) ) ( <= ( + T4 379 )( + T3 161 ) ) )
(or ( <= ( + T3 251 )  ( + T4 379 ) ) ( <= ( + T4 473 )( + T3 171 ) ) )
(or ( <= ( + T3 275 )  ( + T4 473 ) ) ( <= ( + T4 525 )( + T3 251 ) ) )
(or ( <= ( + T3 281 )  ( + T4 525 ) ) ( <= ( + T4 581 )( + T3 275 ) ) )
(or ( <= ( + T3 318 )  ( + T4 581 ) ) ( <= ( + T4 642 )( + T3 281 ) ) )
(or ( <= ( + T3 408 )  ( + T4 642 ) ) ( <= ( + T4 734 )( + T3 318 ) ) )
(or ( <= ( + T3 20 ) T5 ) ( <= ( + T5 55 ) T3 ) )
(or ( <= ( + T3 26 )  ( + T5 55 ) ) ( <= ( + T5 155 )( + T3 20 ) ) )
(or ( <= ( + T3 119 )  ( + T5 155 ) ) ( <= ( + T5 243 )( + T3 26 ) ) )
(or ( <= ( + T3 161 )  ( + T5 243 ) ) ( <= ( + T5 341 )( + T3 119 ) ) )
(or ( <= ( + T3 171 )  ( + T5 341 ) ) ( <= ( + T5 404 )( + T3 161 ) ) )
(or ( <= ( + T3 251 )  ( + T5 404 ) ) ( <= ( + T5 490 )( + T3 171 ) ) )
(or ( <= ( + T3 275 )  ( + T5 490 ) ) ( <= ( + T5 506 )( + T3 251 ) ) )
(or ( <= ( + T3 281 )  ( + T5 506 ) ) ( <= ( + T5 535 )( + T3 275 ) ) )
(or ( <= ( + T3 318 )  ( + T5 535 ) ) ( <= ( + T5 577 )( + T3 281 ) ) )
(or ( <= ( + T3 408 )  ( + T5 577 ) ) ( <= ( + T5 618 )( + T3 318 ) ) )
(or ( <= ( + T3 20 ) T6 ) ( <= ( + T6 20 ) T3 ) )
(or ( <= ( + T3 26 )  ( + T6 20 ) ) ( <= ( + T6 33 )( + T3 20 ) ) )
(or ( <= ( + T3 119 )  ( + T6 33 ) ) ( <= ( + T6 79 )( + T3 26 ) ) )
(or ( <= ( + T3 161 )  ( + T6 79 ) ) ( <= ( + T6 91 )( + T3 119 ) ) )
(or ( <= ( + T3 171 )  ( + T6 91 ) ) ( <= ( + T6 146 )( + T3 161 ) ) )
(or ( <= ( + T3 251 )  ( + T6 146 ) ) ( <= ( + T6 154 )( + T3 171 ) ) )
(or ( <= ( + T3 275 )  ( + T6 154 ) ) ( <= ( + T6 197 )( + T3 251 ) ) )
(or ( <= ( + T3 281 )  ( + T6 197 ) ) ( <= ( + T6 275 )( + T3 275 ) ) )
(or ( <= ( + T3 318 )  ( + T6 275 ) ) ( <= ( + T6 340 )( + T3 281 ) ) )
(or ( <= ( + T3 408 )  ( + T6 340 ) ) ( <= ( + T6 420 )( + T3 318 ) ) )
(or ( <= ( + T3 20 ) T7 ) ( <= ( + T7 19 ) T3 ) )
(or ( <= ( + T3 26 )  ( + T7 19 ) ) ( <= ( + T7 42 )( + T3 20 ) ) )
(or ( <= ( + T3 119 )  ( + T7 42 ) ) ( <= ( + T7 71 )( + T3 26 ) ) )
(or ( <= ( + T3 161 )  ( + T7 71 ) ) ( <= ( + T7 162 )( + T3 119 ) ) )
(or ( <= ( + T3 171 )  ( + T7 162 ) ) ( <= ( + T7 213 )( + T3 161 ) ) )
(or ( <= ( + T3 251 )  ( + T7 213 ) ) ( <= ( + T7 214 )( + T3 171 ) ) )
(or ( <= ( + T3 275 )  ( + T7 214 ) ) ( <= ( + T7 250 )( + T3 251 ) ) )
(or ( <= ( + T3 281 )  ( + T7 250 ) ) ( <= ( + T7 252 )( + T3 275 ) ) )
(or ( <= ( + T3 318 )  ( + T7 252 ) ) ( <= ( + T7 260 )( + T3 281 ) ) )
(or ( <= ( + T3 408 )  ( + T7 260 ) ) ( <= ( + T7 357 )( + T3 318 ) ) )
(or ( <= ( + T3 20 ) T8 ) ( <= ( + T8 45 ) T3 ) )
(or ( <= ( + T3 26 )  ( + T8 45 ) ) ( <= ( + T8 59 )( + T3 20 ) ) )
(or ( <= ( + T3 119 )  ( + T8 59 ) ) ( <= ( + T8 107 )( + T3 26 ) ) )
(or ( <= ( + T3 161 )  ( + T8 107 ) ) ( <= ( + T8 139 )( + T3 119 ) ) )
(or ( <= ( + T3 171 )  ( + T8 139 ) ) ( <= ( + T8 202 )( + T3 161 ) ) )
(or ( <= ( + T3 251 )  ( + T8 202 ) ) ( <= ( + T8 212 )( + T3 171 ) ) )
(or ( <= ( + T3 275 )  ( + T8 212 ) ) ( <= ( + T8 282 )( + T3 251 ) ) )
(or ( <= ( + T3 281 )  ( + T8 282 ) ) ( <= ( + T8 312 )( + T3 275 ) ) )
(or ( <= ( + T3 318 )  ( + T8 312 ) ) ( <= ( + T8 350 )( + T3 281 ) ) )
(or ( <= ( + T3 408 )  ( + T8 350 ) ) ( <= ( + T8 413 )( + T3 318 ) ) )
(or ( <= ( + T4 59 ) T5 ) ( <= ( + T5 55 ) T4 ) )
(or ( <= ( + T4 157 )  ( + T5 55 ) ) ( <= ( + T5 155 )( + T4 59 ) ) )
(or ( <= ( + T4 230 )  ( + T5 155 ) ) ( <= ( + T5 243 )( + T4 157 ) ) )
(or ( <= ( + T4 306 )  ( + T5 243 ) ) ( <= ( + T5 341 )( + T4 230 ) ) )
(or ( <= ( + T4 379 )  ( + T5 341 ) ) ( <= ( + T5 404 )( + T4 306 ) ) )
(or ( <= ( + T4 473 )  ( + T5 404 ) ) ( <= ( + T5 490 )( + T4 379 ) ) )
(or ( <= ( + T4 525 )  ( + T5 490 ) ) ( <= ( + T5 506 )( + T4 473 ) ) )
(or ( <= ( + T4 581 )  ( + T5 506 ) ) ( <= ( + T5 535 )( + T4 525 ) ) )
(or ( <= ( + T4 642 )  ( + T5 535 ) ) ( <= ( + T5 577 )( + T4 581 ) ) )
(or ( <= ( + T4 734 )  ( + T5 577 ) ) ( <= ( + T5 618 )( + T4 642 ) ) )
(or ( <= ( + T4 59 ) T6 ) ( <= ( + T6 20 ) T4 ) )
(or ( <= ( + T4 157 )  ( + T6 20 ) ) ( <= ( + T6 33 )( + T4 59 ) ) )
(or ( <= ( + T4 230 )  ( + T6 33 ) ) ( <= ( + T6 79 )( + T4 157 ) ) )
(or ( <= ( + T4 306 )  ( + T6 79 ) ) ( <= ( + T6 91 )( + T4 230 ) ) )
(or ( <= ( + T4 379 )  ( + T6 91 ) ) ( <= ( + T6 146 )( + T4 306 ) ) )
(or ( <= ( + T4 473 )  ( + T6 146 ) ) ( <= ( + T6 154 )( + T4 379 ) ) )
(or ( <= ( + T4 525 )  ( + T6 154 ) ) ( <= ( + T6 197 )( + T4 473 ) ) )
(or ( <= ( + T4 581 )  ( + T6 197 ) ) ( <= ( + T6 275 )( + T4 525 ) ) )
(or ( <= ( + T4 642 )  ( + T6 275 ) ) ( <= ( + T6 340 )( + T4 581 ) ) )
(or ( <= ( + T4 734 )  ( + T6 340 ) ) ( <= ( + T6 420 )( + T4 642 ) ) )
(or ( <= ( + T4 59 ) T7 ) ( <= ( + T7 19 ) T4 ) )
(or ( <= ( + T4 157 )  ( + T7 19 ) ) ( <= ( + T7 42 )( + T4 59 ) ) )
(or ( <= ( + T4 230 )  ( + T7 42 ) ) ( <= ( + T7 71 )( + T4 157 ) ) )
(or ( <= ( + T4 306 )  ( + T7 71 ) ) ( <= ( + T7 162 )( + T4 230 ) ) )
(or ( <= ( + T4 379 )  ( + T7 162 ) ) ( <= ( + T7 213 )( + T4 306 ) ) )
(or ( <= ( + T4 473 )  ( + T7 213 ) ) ( <= ( + T7 214 )( + T4 379 ) ) )
(or ( <= ( + T4 525 )  ( + T7 214 ) ) ( <= ( + T7 250 )( + T4 473 ) ) )
(or ( <= ( + T4 581 )  ( + T7 250 ) ) ( <= ( + T7 252 )( + T4 525 ) ) )
(or ( <= ( + T4 642 )  ( + T7 252 ) ) ( <= ( + T7 260 )( + T4 581 ) ) )
(or ( <= ( + T4 734 )  ( + T7 260 ) ) ( <= ( + T7 357 )( + T4 642 ) ) )
(or ( <= ( + T4 59 ) T8 ) ( <= ( + T8 45 ) T4 ) )
(or ( <= ( + T4 157 )  ( + T8 45 ) ) ( <= ( + T8 59 )( + T4 59 ) ) )
(or ( <= ( + T4 230 )  ( + T8 59 ) ) ( <= ( + T8 107 )( + T4 157 ) ) )
(or ( <= ( + T4 306 )  ( + T8 107 ) ) ( <= ( + T8 139 )( + T4 230 ) ) )
(or ( <= ( + T4 379 )  ( + T8 139 ) ) ( <= ( + T8 202 )( + T4 306 ) ) )
(or ( <= ( + T4 473 )  ( + T8 202 ) ) ( <= ( + T8 212 )( + T4 379 ) ) )
(or ( <= ( + T4 525 )  ( + T8 212 ) ) ( <= ( + T8 282 )( + T4 473 ) ) )
(or ( <= ( + T4 581 )  ( + T8 282 ) ) ( <= ( + T8 312 )( + T4 525 ) ) )
(or ( <= ( + T4 642 )  ( + T8 312 ) ) ( <= ( + T8 350 )( + T4 581 ) ) )
(or ( <= ( + T4 734 )  ( + T8 350 ) ) ( <= ( + T8 413 )( + T4 642 ) ) )
(or ( <= ( + T5 55 ) T6 ) ( <= ( + T6 20 ) T5 ) )
(or ( <= ( + T5 155 )  ( + T6 20 ) ) ( <= ( + T6 33 )( + T5 55 ) ) )
(or ( <= ( + T5 243 )  ( + T6 33 ) ) ( <= ( + T6 79 )( + T5 155 ) ) )
(or ( <= ( + T5 341 )  ( + T6 79 ) ) ( <= ( + T6 91 )( + T5 243 ) ) )
(or ( <= ( + T5 404 )  ( + T6 91 ) ) ( <= ( + T6 146 )( + T5 341 ) ) )
(or ( <= ( + T5 490 )  ( + T6 146 ) ) ( <= ( + T6 154 )( + T5 404 ) ) )
(or ( <= ( + T5 506 )  ( + T6 154 ) ) ( <= ( + T6 197 )( + T5 490 ) ) )
(or ( <= ( + T5 535 )  ( + T6 197 ) ) ( <= ( + T6 275 )( + T5 506 ) ) )
(or ( <= ( + T5 577 )  ( + T6 275 ) ) ( <= ( + T6 340 )( + T5 535 ) ) )
(or ( <= ( + T5 618 )  ( + T6 340 ) ) ( <= ( + T6 420 )( + T5 577 ) ) )
(or ( <= ( + T5 55 ) T7 ) ( <= ( + T7 19 ) T5 ) )
(or ( <= ( + T5 155 )  ( + T7 19 ) ) ( <= ( + T7 42 )( + T5 55 ) ) )
(or ( <= ( + T5 243 )  ( + T7 42 ) ) ( <= ( + T7 71 )( + T5 155 ) ) )
(or ( <= ( + T5 341 )  ( + T7 71 ) ) ( <= ( + T7 162 )( + T5 243 ) ) )
(or ( <= ( + T5 404 )  ( + T7 162 ) ) ( <= ( + T7 213 )( + T5 341 ) ) )
(or ( <= ( + T5 490 )  ( + T7 213 ) ) ( <= ( + T7 214 )( + T5 404 ) ) )
(or ( <= ( + T5 506 )  ( + T7 214 ) ) ( <= ( + T7 250 )( + T5 490 ) ) )
(or ( <= ( + T5 535 )  ( + T7 250 ) ) ( <= ( + T7 252 )( + T5 506 ) ) )
(or ( <= ( + T5 577 )  ( + T7 252 ) ) ( <= ( + T7 260 )( + T5 535 ) ) )
(or ( <= ( + T5 618 )  ( + T7 260 ) ) ( <= ( + T7 357 )( + T5 577 ) ) )
(or ( <= ( + T5 55 ) T8 ) ( <= ( + T8 45 ) T5 ) )
(or ( <= ( + T5 155 )  ( + T8 45 ) ) ( <= ( + T8 59 )( + T5 55 ) ) )
(or ( <= ( + T5 243 )  ( + T8 59 ) ) ( <= ( + T8 107 )( + T5 155 ) ) )
(or ( <= ( + T5 341 )  ( + T8 107 ) ) ( <= ( + T8 139 )( + T5 243 ) ) )
(or ( <= ( + T5 404 )  ( + T8 139 ) ) ( <= ( + T8 202 )( + T5 341 ) ) )
(or ( <= ( + T5 490 )  ( + T8 202 ) ) ( <= ( + T8 212 )( + T5 404 ) ) )
(or ( <= ( + T5 506 )  ( + T8 212 ) ) ( <= ( + T8 282 )( + T5 490 ) ) )
(or ( <= ( + T5 535 )  ( + T8 282 ) ) ( <= ( + T8 312 )( + T5 506 ) ) )
(or ( <= ( + T5 577 )  ( + T8 312 ) ) ( <= ( + T8 350 )( + T5 535 ) ) )
(or ( <= ( + T5 618 )  ( + T8 350 ) ) ( <= ( + T8 413 )( + T5 577 ) ) )
(or ( <= ( + T6 20 ) T7 ) ( <= ( + T7 19 ) T6 ) )
(or ( <= ( + T6 33 )  ( + T7 19 ) ) ( <= ( + T7 42 )( + T6 20 ) ) )
(or ( <= ( + T6 79 )  ( + T7 42 ) ) ( <= ( + T7 71 )( + T6 33 ) ) )
(or ( <= ( + T6 91 )  ( + T7 71 ) ) ( <= ( + T7 162 )( + T6 79 ) ) )
(or ( <= ( + T6 146 )  ( + T7 162 ) ) ( <= ( + T7 213 )( + T6 91 ) ) )
(or ( <= ( + T6 154 )  ( + T7 213 ) ) ( <= ( + T7 214 )( + T6 146 ) ) )
(or ( <= ( + T6 197 )  ( + T7 214 ) ) ( <= ( + T7 250 )( + T6 154 ) ) )
(or ( <= ( + T6 275 )  ( + T7 250 ) ) ( <= ( + T7 252 )( + T6 197 ) ) )
(or ( <= ( + T6 340 )  ( + T7 252 ) ) ( <= ( + T7 260 )( + T6 275 ) ) )
(or ( <= ( + T6 420 )  ( + T7 260 ) ) ( <= ( + T7 357 )( + T6 340 ) ) )
(or ( <= ( + T6 20 ) T8 ) ( <= ( + T8 45 ) T6 ) )
(or ( <= ( + T6 33 )  ( + T8 45 ) ) ( <= ( + T8 59 )( + T6 20 ) ) )
(or ( <= ( + T6 79 )  ( + T8 59 ) ) ( <= ( + T8 107 )( + T6 33 ) ) )
(or ( <= ( + T6 91 )  ( + T8 107 ) ) ( <= ( + T8 139 )( + T6 79 ) ) )
(or ( <= ( + T6 146 )  ( + T8 139 ) ) ( <= ( + T8 202 )( + T6 91 ) ) )
(or ( <= ( + T6 154 )  ( + T8 202 ) ) ( <= ( + T8 212 )( + T6 146 ) ) )
(or ( <= ( + T6 197 )  ( + T8 212 ) ) ( <= ( + T8 282 )( + T6 154 ) ) )
(or ( <= ( + T6 275 )  ( + T8 282 ) ) ( <= ( + T8 312 )( + T6 197 ) ) )
(or ( <= ( + T6 340 )  ( + T8 312 ) ) ( <= ( + T8 350 )( + T6 275 ) ) )
(or ( <= ( + T6 420 )  ( + T8 350 ) ) ( <= ( + T8 413 )( + T6 340 ) ) )
(or ( <= ( + T7 19 ) T8 ) ( <= ( + T8 45 ) T7 ) )
(or ( <= ( + T7 42 )  ( + T8 45 ) ) ( <= ( + T8 59 )( + T7 19 ) ) )
(or ( <= ( + T7 71 )  ( + T8 59 ) ) ( <= ( + T8 107 )( + T7 42 ) ) )
(or ( <= ( + T7 162 )  ( + T8 107 ) ) ( <= ( + T8 139 )( + T7 71 ) ) )
(or ( <= ( + T7 213 )  ( + T8 139 ) ) ( <= ( + T8 202 )( + T7 162 ) ) )
(or ( <= ( + T7 214 )  ( + T8 202 ) ) ( <= ( + T8 212 )( + T7 213 ) ) )
(or ( <= ( + T7 250 )  ( + T8 212 ) ) ( <= ( + T8 282 )( + T7 214 ) ) )
(or ( <= ( + T7 252 )  ( + T8 282 ) ) ( <= ( + T8 312 )( + T7 250 ) ) )
(or ( <= ( + T7 260 )  ( + T8 312 ) ) ( <= ( + T8 350 )( + T7 252 ) ) )
(or ( <= ( + T7 357 )  ( + T8 350 ) ) ( <= ( + T8 413 )( + T7 260 ) ) )
( <= ( + T1 522 ) Z)
( <= ( + T2 489 ) Z)
( <= ( + T3 408 ) Z)
( <= ( + T4 734 ) Z)
( <= ( + T5 618 ) Z)
( <= ( + T6 420 ) Z)
( <= ( + T7 357 ) Z)
( <= ( + T8 413 ) Z)
( >= T1 0 )
( >= T2 0 )
( >= T3 0 )
( >= T4 0 )
( >= T5 0 )
( >= T6 0 )
( >= T7 0 )
( >= T8 0 )
) )
)(=> $phi $goal))))